%%%mzn-stat: initTime=0.037231458
%%%mzn-stat: objective=158
%%%mzn-stat: nodes=93673
%%%mzn-stat: restarts=59
%%%mzn-stat: peakDepth=620
%%%mzn-stat: solveTime=20.538962352
%%%mzn-stat: variables=2426
%%%mzn-stat: propagators=2004
%%%mzn-stat: failures=19519
%%%mzn-stat: propagations=2914154
%%%mzn-stat: nogoods=19519
%%%mzn-stat: AverageConflictSize=109.77370766945027
%%%mzn-stat: NumUnitNogoodsLearned=144
%%%mzn-stat: AverageLearnedNogoodLength=134.65776935293817
%%%mzn-stat: AverageBacktrackAmount=0
%%%mzn-stat: AverageLbd=34.38839079870895
%%%mzn-stat-end
maxleg = 158;
succ = array1d(1..100,[91, 37, 16, 96, 27, 73, 64, 63, 72, 75, 44, 80, 19, 52, 24, 6, 95, 77, 66, 22, 97, 41, 40, 90, 74, 32, 14, 59, 20, 31, 26, 100, 55, 98, 85, 79, 4, 84, 49, 42, 87, 7, 67, 47, 1, 57, 82, 83, 86, 51, 81, 93, 12, 11, 10, 53, 43, 56, 58, 62, 13, 92, 46, 54, 38, 71, 15, 28, 21, 17, 5, 88, 61, 30, 50, 33, 36, 18, 60, 39, 94, 9, 8, 29, 70, 78, 99, 3, 34, 89, 69, 48, 76, 2, 68, 65, 23, 45, 25, 35]);
% time elapsed: 21.56 s
----------
==========
% time elapsed: 21.56 s
%%%mzn-stat: initTime=0.037231458
%%%mzn-stat: objective=158
%%%mzn-stat: nodes=93673
%%%mzn-stat: restarts=59
%%%mzn-stat: peakDepth=620
%%%mzn-stat: solveTime=20.54358486
%%%mzn-stat: variables=2426
%%%mzn-stat: propagators=2004
%%%mzn-stat: failures=19520
%%%mzn-stat: propagations=2915556
%%%mzn-stat: nogoods=19520
%%%mzn-stat: AverageConflictSize=109.77622950819672
%%%mzn-stat: NumUnitNogoodsLearned=145
%%%mzn-stat: AverageLearnedNogoodLength=134.65092213114755
%%%mzn-stat: AverageBacktrackAmount=0
%%%mzn-stat: AverageLbd=34.38668032786885
%%%mzn-stat-end
